100
128
5
1
2
28
30
11
4
13
45
10
30
6
6
22
42
5
47
12
11
3
21
12
1
27
5
21
2
8
14
16
13
8
2
8
42
7
10
9
6
11
2
7
1
16
12
12
7
2
1
3
7
1
34
26
28
14
1
2
4
2
20
15
4
6
12
8
3
26
28
20
29
6
15
6
8
50
56
40
60
29
27
56
48
6
57
44
19
48
12
43
23
24
37
28
23
31
64
46
64
3